c --- [ banner ] -------------------------------------------------------------
c 
c CaDiCaL Radically Simplified CDCL SAT Solver
c Copyright (c) 2016-2021 A. Biere, M. Fleury, N. Froleyks
c 
c Version 1.5.2 a5f15211db36c3956764e18194dd5bd63bf3b5e6
c g++ (GCC) 9.3.0 -Wall -Wextra -O3 -DNDEBUG
c Fri Oct 21 01:27:37 EDT 2022 Linux gra-login3 3.10.0-1160.66.1.el7.x86_64 x86_64
c 
c --- [ limit ] --------------------------------------------------------------
c 
c setting conflict limit to 200000 conflicts (due to '200000')
c 
c --- [ parsing input ] ------------------------------------------------------
c 
c reading DIMACS file from '33.cubes7315.adj'
c opening file to read '33.cubes7315.adj'
c found 'p cnf 6160 1595476' header
c parsed 1595476 clauses in 19.61 seconds process time
c closing file '33.cubes7315.adj'
c after reading 1457566780 bytes 1390.0 MB
c 
c --- [ options ] ------------------------------------------------------------
c 
c all options are set to their default value
c 
c --- [ solving ] ------------------------------------------------------------
c 
c time measured in process time since initialization
c 
c  seconds    reductions  redundant   irredundant
c          MB     restarts       trail       variables
c            level   conflicts       glue         remaining
c 
c * 19.61 1375  0 0   0    0    0  0% 0 1595422 2471 40%
c { 20.13 1406  0 0   0    0    0  0% 0 1595422 2471 40%
c i 20.46 1423 706 0   0    9    8 27% 2 1595422 2470 40%
c i 21.65 1478 851 0   1   33   31 35% 5 1595422 2459 40%
c i 22.68 1496 548 0   5   59   49 31% 29 1595422 2440 40%
c i 24.22 1508 284 0  15  139  100 25% 29 1595422 2439 40%
c i 24.32 1508 277 0  17  146  104 25% 30 1595422 2430 39%
c i 24.36 1508 275 0  18  148  105 25% 30 1595422 2429 39%
c i 24.49 1509 265 0  20  158  114 26% 33 1595422 2425 39%
c i 25.45 1512 239 0  32  204  149 26% 35 1595422 2423 39%
c i 25.98 1514 227 0  42  240  181 25% 38 1595422 2420 39%
c i 26.06 1514 225 0  43  245  185 25% 39 1595422 2419 39%
c i 26.10 1514 225 0  44  248  187 26% 38 1595422 2418 39%
c i 26.35 1514 214 0  50  270  206 26% 38 1595422 2408 39%
c i 26.44 1514 203 0  50  291  223 26% 38 1595422 2404 39%
c i 26.51 1514 202 0  51  295  226 26% 39 1595422 2399 39%
c i 26.54 1514 202 0  52  299  229 26% 39 1595422 2390 39%
c i 26.56 1514 201 0  53  303  232 26% 40 1595422 2389 39%
c - 29.96 1478 201 1  54  303  228 26% 40 156304 2389 39%
c i 30.25 1390 194 1  58  323  246 26% 40 156304 2388 39%
c 
c  seconds     reductions  redundant   irredundant
c          MB      restarts       trail       variables
c             level   conflicts       glue         remaining
c 
c i 30.28 1390 188 1  62  337  254 27% 40 156304 2387 39%
c i 30.33 1390 149 1  64  450  343 28% 37 156304 2386 39%
c i 30.34 1390 138 1  64  498  381 28% 36 156304 2385 39%
c i 30.34 1390 136 1  64  504  386 28% 36 156304 2384 39%
c i 30.34 1390 136 1  64  507  388 28% 36 156304 2383 39%
c i 30.35 1390 136 1  64  508  388 28% 36 156304 2382 39%
c i 30.36 1390 127 1  64  554  422 28% 35 156304 2381 39%
c i 30.36 1390 126 1  64  558  423 28% 35 156304 2380 39%
c i 30.36 1390 126 1  64  561  423 28% 34 156304 2379 39%
c i 30.36 1390 125 1  64  563  424 28% 34 156304 2378 39%
c i 30.37 1390 118 1  64  610  456 29% 34 156304 2377 39%
c i 30.42 1390 110 1  64  676  499 29% 33 156304 2376 39%
c i 30.42 1390 110 1  64  681  502 29% 33 156304 2375 39%
c i 30.69 1390 98 1  76  853  645 29% 33 156304 2374 39%
c i 30.69 1390 96 1  76  867  655 29% 33 156304 2373 39%
c i 30.88 1390 95 1  85  955  728 29% 34 156304 2372 39%
c i 30.88 1390 94 1  86  956  728 29% 34 156304 2371 38%
c i 30.95 1390 94 1  91  977  742 29% 34 156304 2355 38%
c i 30.99 1390 94 1  92  981  745 29% 34 156304 2345 38%
c i 31.00 1390 94 1  92  985  748 29% 34 156304 2344 38%
c 
c  seconds    reductions  redundant   irredundant
c          MB     restarts       trail       variables
c            level   conflicts       glue         remaining
c 
c i 31.01 1390 94 1  93  987  749 29% 34 156304 2343 38%
c } 31.03 1390 93 1  93 1001  757 29% 34 156304 2343 38%
c [ 31.03 1390  0 1  93 1001  757  0% 0 156304 2343 38%
c O 31.08 1390 16 1  93 1002  758 35% 15 156304 2343 38%
c - 31.59 1452 25 2  93 1021  667 33% 17 116539 2343 38%
c i 31.70 1452 26 2  93 1104  731 33% 22 116539 2342 38%
c i 31.71 1452 26 2  93 1128  749 33% 22 116539 2341 38%
c i 31.72 1452 26 2  93 1138  756 33% 22 116539 2340 38%
c i 31.73 1452 26 2  93 1145  762 33% 22 116539 2339 38%
c i 31.77 1452 27 2  93 1187  791 32% 23 116539 2338 38%
c i 31.78 1452 27 2  93 1205  804 32% 23 116539 2337 38%
c i 31.88 1452 28 2  93 1394  918 32% 25 116539 2336 38%
c i 31.90 1452 28 2  93 1448  945 32% 24 116539 2335 38%
c i 31.90 1452 28 2  93 1456  950 32% 24 116539 2334 38%
c i 32.14 1452 29 2  93 1781 1165 31% 25 116539 2333 38%
c - 32.43 1451 29 3  93 1981  916 31% 25 116509 2333 38%
c i 32.60 1451 28 3  94 2146 1001 31% 25 116509 2332 38%
c i 32.60 1451 28 3  94 2147 1001 31% 25 116509 2331 38%
c i 32.88 1451 27 3  94 2562 1213 31% 24 116509 2330 38%
c i 33.06 1451 27 3  94 2983 1411 31% 24 116509 2329 38%
c 
c  seconds    reductions  redundant   irredundant
c          MB     restarts       trail       variables
c            level   conflicts       glue         remaining
c 
c ] 33.07 1451 26 3  94 3001 1416 31% 24 116509 2329 38%
c { 33.07 1451 93 3  94 3001 1416 29% 34 116509 2329 38%
c F 33.27 1450 92 3  94 3005 1418 14% 33 116497 2329 38%
c i 33.27 1450 92 3  94 3005 1418 14% 33 116497 2328 38%
c i 33.29 1450 92 3  94 3007 1419 23% 33 116497 2327 38%
c i 33.36 1450 91 3  94 3034 1443 45% 33 116497 2326 38%
c i 33.39 1450 91 3  94 3045 1451 46% 33 116497 2324 38%
c i 33.43 1450 91 3  96 3064 1468 45% 34 116497 2323 38%
c i 33.46 1450 92 3  98 3070 1473 44% 34 116497 2322 38%
c i 33.61 1450 90 3 110 3138 1527 47% 34 116497 2321 38%
c i 33.61 1450 90 3 110 3139 1527 47% 34 116497 2320 38%
c i 33.61 1450 90 3 110 3141 1528 47% 34 116497 2319 38%
c i 33.65 1450 88 3 110 3179 1540 47% 33 116497 2315 38%
c i 33.65 1450 88 3 110 3186 1542 47% 33 116497 2313 38%
c - 33.92 1390 87 4 114 3260 1143 48% 33 116455 2313 38%
c i 34.14 1390 90 4 127 3326 1200 48% 36 116455 2296 37%
c i 34.17 1390 91 4 129 3333 1206 48% 36 116455 2258 37%
c i 34.26 1390 92 4 135 3358 1225 48% 37 116455 2257 37%
c i 34.45 1390 90 4 152 3446 1293 49% 37 116455 2256 37%
c i 34.45 1390 90 4 152 3450 1296 49% 37 116455 2255 37%
c 
c  seconds    reductions  redundant   irredundant
c          MB     restarts       trail       variables
c            level   conflicts       glue         remaining
c 
c i 34.64 1390 88 4 163 3561 1386 49% 37 116455 2254 37%
c i 34.65 1390 88 4 164 3576 1399 48% 37 116455 2253 37%
c i 34.85 1390 87 4 173 3681 1483 49% 38 116455 2252 37%
c i 34.86 1390 86 4 175 3687 1488 49% 38 116455 2251 37%
c i 35.06 1390 86 4 191 3757 1552 49% 38 116455 2250 37%
c i 35.06 1390 86 4 191 3758 1552 49% 38 116455 2249 37%
c i 35.08 1390 87 4 194 3772 1564 49% 38 116455 2248 36%
c i 35.10 1390 87 4 197 3786 1574 49% 38 116455 2247 36%
c i 35.33 1390 88 4 217 3873 1652 49% 39 116455 2246 36%
c i 35.65 1390 89 4 238 3959 1729 49% 40 116455 2245 36%
c i 35.70 1390 89 4 244 3997 1764 49% 40 116455 2244 36%
c i 35.71 1390 89 4 245 4002 1768 49% 40 116455 2243 36%
c i 35.74 1390 89 4 250 4024 1789 49% 40 116455 2242 36%
c i 35.84 1390 85 4 261 4180 1896 49% 39 116455 2241 36%
c i 35.97 1390 74 4 261 4717 2282 50% 36 116455 2240 36%
c i 35.97 1390 74 4 261 4727 2287 50% 36 116455 2239 36%
c - 36.18 1390 72 5 261 4859 1771 50% 36 115566 2239 36%
c i 36.32 1390 70 5 261 4994 1858 50% 35 115566 2238 36%
c d 36.53 1390 70 5 261 5000 1861 50% 35 115539 2226 36%
c 2 36.55 1390 70 5 261 5000 3756 50% 35 115539 2223 36%
c 
c  seconds    reductions  redundant   irredundant
c          MB     restarts       trail       variables
c            level   conflicts       glue         remaining
c 
c p 39.25 1390 70 5 261 5000 8404 50% 35 115539 2111 34%
c d 39.46 1390 70 5 261 5000 8352 50% 35 115208 2110 34%
c # 39.98 1390 58 5 261 6006 9003 50% 31 115208 2110 34%
c - 40.42 1396 52 6 261 6774 2524 50% 29 115208 2110 34%
c } 40.52 1396 51 6 261 7003 2681 50% 29 115208 2110 34%
c [ 40.52 1396 26 6 261 7003 2681 82% 24 115208 2110 34%
c - 41.13 1396 24 7 262 9003 2616 66% 21 115208 2110 34%
c I 41.47 1396 24 7 263 10007 3269 64% 21 115208 2110 34%
c - 43.53 1396 49 8 265 11550 3220 60% 38 115208 2110 34%
c - 49.22 1396 73 9 266 14416 3893 57% 57 115208 2110 34%
c 2 50.34 1396 76 9 266 15000 6163 56% 59 115207 2110 34%
c p 51.23 1396 76 9 266 15000 10233 56% 59 115207 2110 34%
c ] 51.29 1396 76 9 266 15004 10236 56% 59 115207 2110 34%
c { 51.29 1396 51 9 266 15004 10236 50% 29 115207 2110 34%
c B 51.34 1396 51 9 266 15008 10240 50% 29 115207 2110 34%
c - 52.41 1396 40 10 309 17600 4274 51% 24 115207 2110 34%
c s 52.91 1396 37 10 321 18670 4524 51% 23 113927 2110 34%
c v 54.31 1396 37 10 321 18670 4524 51% 23 113915 2110 34%
c w 54.38 1396 37 10 321 18670 4517 51% 23 113915 2110 34%
c t 54.39 1396 37 10 321 18670 4506 51% 23 113905 2110 34%
c 
c  seconds    reductions    redundant   irredundant
c          MB      restarts        trail       variables
c            level     conflicts       glue        remaining
c 
c e 54.79 1397 37 10 321 18670 4048 51% 23 110644 582  9%
c s 54.86 1397 37 10 321 18670 4048 51% 23 110545 582  9%
c W 56.67 1397 34 10 342 21015 5659 87% 22 110545 582  9%
c - 56.77 1397 34 11 361 21104 4715 87% 22 110545 582  9%
c - 57.81 1397 31 12 423 24861 4273 88% 21 110545 582  9%
c F 58.60 1397 28 12 428 28016 6394 88% 20 110545 582  9%
c - 58.96 1397 28 13 447 28930 4667 88% 19 110545 582  9%
c d 59.24 1397 27 13 466 30002 5358 88% 19 110528 580  9%
c 2 59.25 1397 27 13 466 30002 5737 88% 19 110525 580  9%
c p 60.02 1397 27 13 466 30002 7715 88% 19 110525 580  9%
c } 60.51 1397 26 13 466 31005 8228 88% 19 110525 580  9%
c [ 60.51 1397 76 13 466 31005 8228 226% 59 110525 580  9%
c - 61.36 1397 65 14 466 33317 4995 198% 51 110525 580  9%
c B 62.49 1397 57 14 469 36017 6533 177% 45 110525 580  9%
c - 62.95 1397 55 15 470 38016 5487 166% 44 110525 580  9%
c - 64.70 1397 51 16 473 43025 5892 146% 41 110525 580  9%
c W 65.72 1397 50 16 473 45020 7253 141% 41 110525 580  9%
c - 67.13 1397 48 17 474 48347 6025 134% 39 110525 580  9%
c s 67.43 1397 48 17 474 48951 6385 132% 39 110240 580  9%
c v 68.32 1397 48 17 474 48951 6385 132% 39 110231 580  9%
c 
c  seconds    reductions    redundant    irredundant
c          MB      restarts        trail        variables
c            level     conflicts        glue        remaining
c 
c w 68.35 1397 48 17 474 48951 6383 132% 39 110231 580  9%
c t 68.36 1397 48 17 474 48951 6382 132% 39 110231 580  9%
c s 68.84 1397 48 17 474 48951 6382 132% 39 109942 580  9%
c p 70.04 1397 47 17 474 50004 9316 131% 39 109942 580  9%
c - 71.38 1397 44 18 474 53982 6472 125% 37 109942 580  9%
c ] 71.55 1397 44 18 475 54645 6889 124% 36 109942 580  9%
c 1 71.55 1397 44 18 475 54645 6889 124% 36 109942 580  9%
c 
c --- [ writing output ] -----------------------------------------------------
c 
c writing simplified CNF to DIMACS file 'simp/33.cubes7315.adj.simp1'
c * 71.55 1397 44 18 475 54645 6889 124% 36 109942 580  9%
c opening file to write 'simp/33.cubes7315.adj.simp1'
c writing 'p cnf 6160 109942' header
c closing file 'simp/33.cubes7315.adj.simp1'
c after writing 56545117 bytes 53.9 MB
c wrote 109942 clauses in 0.40 seconds process time
c 
c --- [ writing extension ] --------------------------------------------------
c 
c writing extension stack to 'simp/33.cubes7315.adj.ext1'
c opening file to write 'simp/33.cubes7315.adj.ext1'
c closing file 'simp/33.cubes7315.adj.ext1'
c after writing 99751 bytes 0.1 MB
c wrote 4381 witnesses in 0.00 seconds process time
c 
c --- [ result ] -------------------------------------------------------------
c 
s SATISFIABLE
c 
c --- [ run-time profiling ] -------------------------------------------------
c 
c process time taken by individual solving procedures
c (percentage relative to process time for solving)
c 
c        42.39   81.62% search
c        21.17   40.76% unstable
c        20.18   38.86% stable
c        19.61   37.75% parse
c         9.55   18.38% simplify
c         4.82    9.27% probe
c         2.37    4.56% vivify
c         1.46    2.82% elim
c         0.52    1.00% walk
c         0.52    1.00% lucky
c         0.30    0.59% subsume
c         0.05    0.10% ternary
c   =================================
c        51.94   72.19% solve
c 
c last line shows process time for solving
c (percentage relative to total process time)
c 
c --- [ statistics ] ---------------------------------------------------------
c 
c chronological:              8222        15.05 %  of conflicts
c conflicts:                 54645      1052.13    per second
c decisions:                100164      1928.56    per second
c eliminated:                 1528        24.81 %  of all variables
c fixed:                       893        14.50 %  of all variables
c learned:                   53663        98.20 %  per conflict
c learned_lits:           10089058       100.00 %  learned literals
c minimized:                     0         0.00 %  learned literals
c shrunken:                7249975        71.86 %  learned literals
c minishrunken:             414725         4.11 %  learned literals
c propagations:            4392382         0.08 M  per second
c reduced:                   27958        51.16 %  per conflict
c rephased:                      9      6071.67    interval
c restarts:                    475       115.04    interval
c stabilizing:                   3        61.56 %  of conflicts
c substituted:                  15         0.24 %  of all variables
c subsumed:                  20460         0.60 %  of all clauses
c strengthened:               3433         0.10 %  of all clauses
c ternary:                    4425         0.93 %  of resolved
c vivified:                     30         0.00 %  of all clauses
c walked:                        2     27322.50    interval
c weakened:                   3488         3.04    average size
c 
c seconds are measured in process time for solving
c 
c --- [ resources ] ----------------------------------------------------------
c 
c total process time since initialization:        71.95    seconds
c total real time since initialization:           72.63    seconds
c maximum resident set size of process:         1514.25    MB
c 
c --- [ shutting down ] ------------------------------------------------------
c 
c exit 10
WARNING! DIMACS header mismatch: wrong number of variables.
============================[ Problem Statistics ]=============================
|                                                                             |
|  Number of variables:          6120                                         |
|  Number of clauses:          109948                                         |
|  Parse time:                   0.83 s                                       |
|  Simplification time:          0.03 s                                       |
|                                                                             |
============================[ Search Statistics ]====================================================
| Conflicts |          ORIGINAL         |          LEARNT          | Num Sols |      SUBGRAPHS      |
|           |    Vars  Clauses Literals |    Limit  Clauses Lit/Cl |          | Canonical Noncanon. |
=====================================================================================================
|       110 |    6026   109958 12044231 |     2000      110    121 |        0 |        12        10 |
|       434 |    5993   110131 12046059 |     2000      433     73 |        0 |        42       184 |
|       688 |    5989   110160 12046359 |     2000      683     77 |        0 |        61       213 |
|      1046 |    5988   110181 12046778 |     2000     1040     79 |        0 |        68       234 |
|      1705 |    5982   110334 12048155 |     2000     1693     77 |        0 |       107       387 |
|      2489 |    5972   110359 12049042 |     3596     1480     51 |        0 |       124       412 |
|      4183 |    5969   110914 12054881 |     3596     3171     56 |        0 |       240       967 |
|      6126 |    5968   111149 12057208 |     4994     3319     44 |        0 |       339      1202 |
|      9138 |    5916   111599 12062296 |     6296     3834     36 |        0 |       476      1652 |
|     13285 |    5912   111902 12066563 |     7548     4833     37 |        0 |       570      1955 |
|     19395 |    5912   112246 12070727 |     8775     7170     49 |        2 |       713      2297 |
|     28884 |    5903   113085 12079777 |    11202     7284     37 |        2 |       852      3137 |
|     42139 |    5903   113366 12084476 |    13603     8742     36 |        2 |      1012      3418 |
|     61939 |    5903   113705 12090983 |    16008    14347     40 |        2 |      1423      3757 |
=====================================================================================================
Number of solutions   : 2
Canonical subgraphs   : 1569           (35 /sec)
          order  3    : 1              (90909 /sec)
          order  4    : 1              (250000 /sec)
          order  5    : 1              (125000 /sec)
          order  6    : 1              (30303 /sec)
          order  7    : 1              (4831 /sec)
          order  8    : 2              (853 /sec)
          order  9    : 2              (394 /sec)
          order 10    : 4              (299 /sec)
          order 11    : 7              (252 /sec)
          order 12    : 15             (187 /sec)
          order 13    : 54             (161 /sec)
          order 14    : 134            (114 /sec)
          order 15    : 241            (71 /sec)
          order 16    : 124            (54 /sec)
          order 17    : 230            (35 /sec)
          order 18    : 270            (25 /sec)
          order 19    : 144            (25 /sec)
          order 20    : 159            (26 /sec)
          order 21    : 176            (25 /sec)
          order 22    : 2              (1 /sec)
Noncanonical subgraphs: 4196           (203 /sec)
          order  3    : 0              (-nan /sec)
          order  4    : 0              (-nan /sec)
          order  5    : 0              (-nan /sec)
          order  6    : 0              (-nan /sec)
          order  7    : 0              (-nan /sec)
          order  8    : 0              (-nan /sec)
          order  9    : 0              (-nan /sec)
          order 10    : 0              (-nan /sec)
          order 11    : 0              (-nan /sec)
          order 12    : 0              (-nan /sec)
          order 13    : 245            (7975 /sec)
          order 14    : 304            (6569 /sec)
          order 15    : 572            (2445 /sec)
          order 16    : 1348           (391 /sec)
          order 17    : 505            (381 /sec)
          order 18    : 838            (154 /sec)
          order 19    : 147            (113 /sec)
          order 20    : 24             (2737 /sec)
          order 21    : 2              (2561 /sec)
Canonicity checking   : 45.3135 s
Noncanonicity checking: 20.6296 s
Total canonicity time : 65.9431 s
database reductions   : 14
restarts              : 253
conflicts             : 82858          (973 /sec)
decisions             : 131259         (0.00 % random) (1541 /sec)
propagations          : 2872949        (33734 /sec)
conflict literals     : 5671689        (56.05 % deleted)
actual reward         : 0.363625
Memory used           : 141.00 MB
CPU time              : 85.1637 s

UNSATISFIABLE
